10 45
1 2 8 1 3 8 1 4 14 1 5 17 1 6 16 1 7 6 1 8 11 1 9 19 1 10 16 2 3 9 2 4 20 2 5 17 2 6 14 2 7 13 2 8 16 2 9 6 2 10 6 3 4 11 3 5 8 3 6 6 3 7 20 3 8 5 3 9 12 3 10 19 4 5 16 4 6 18 4 7 20 4 8 20 4 9 9 4 10 20 5 6 20 5 7 7 5 8 6 5 9 5 5 10 12 6 7 5 6 8 18 6 9 11 6 10 20 7 8 15 7 9 8 7 10 9 8 9 13 8 10 14 9 10 17 